
Gurobi 11.0.0 (win64) logging started Sat Jun 15 10:12:51 2024

Set parameter LogFile to value "./GurobiLog/stage_2_iter_23.log"
Gurobi Optimizer version 11.0.0 build v11.0.0rc2 (win64 - Windows 10.0 (18363.2))

CPU model: Intel(R) Core(TM) i7-8700 CPU @ 3.20GHz, instruction set [SSE2|AVX|AVX2]
Thread count: 6 physical cores, 12 logical processors, using up to 1 threads

Optimize a model with 1504 rows, 20473 columns and 164728 nonzeros
Coefficient statistics:
  Matrix range     [3e-03, 7e+03]
  Objective range  [1e-01, 2e+05]
  Bounds range     [1e+00, 5e+05]
  RHS range        [1e+00, 7e+04]
LP warm-start: use basis
Iteration    Objective       Primal Inf.    Dual Inf.      Time
       0    1.9230446e+04   1.666432e+04   0.000000e+00      0s
     133    2.2908970e+04   0.000000e+00   0.000000e+00      0s

Solved in 133 iterations and 0.03 seconds (0.03 work units)
Optimal objective  2.290896958e+04
